experiments/sat_smt/run/sat-r/results/willow.res
solved=true
solvingTime=214.5595550537109375
nActions=14