experiments/sat_smt/run/sat-r/results/willow.out
Timesteps: 1
s UNSATISFIABLE
real 0.26
user 0.03
sys 0.00
Timesteps: 2
s UNSATISFIABLE
real 0.22
user 0.07
sys 0.00
Timesteps: 3
s UNSATISFIABLE
real 0.38
user 0.14
sys 0.01
Timesteps: 4
s UNSATISFIABLE
real 0.54
user 0.36
sys 0.02
Timesteps: 5
s UNSATISFIABLE
real 0.82
user 0.62
sys 0.02
Timesteps: 6
s UNSATISFIABLE
real 1.07
user 0.83
sys 0.02
Timesteps: 7
s UNSATISFIABLE
real 2.58
user 2.29
sys 0.02
Timesteps: 8
s UNSATISFIABLE
real 7.63
user 6.81
sys 0.03
Timesteps: 9
s UNSATISFIABLE
real 11.71
user 10.78
sys 0.03
Timesteps: 10
s UNSATISFIABLE
real 18.51
user 17.40
sys 0.08
Timesteps: 11
s UNSATISFIABLE
real 30.62
user 29.36
sys 0.09
Timesteps: 12
s UNSATISFIABLE
real 47.81
user 46.30
sys 0.14
Timesteps: 13
s UNSATISFIABLE
real 51.40
user 49.80
sys 0.13
Timesteps: 14
s SATISFIABLE
real 45.79
user 44.12
sys 0.13
